p cnf 258 1244
-1 -181 0
-1 -182 0
-1 -183 0
-2 181 0
-2 -182 0
-2 -183 0
-3 -181 0
-3 182 0
-3 -183 0
-4 181 0
-4 182 0
-4 -183 0
-5 -181 0
-5 -182 0
-5 183 0
-1 31 0
-1 6 0
-2 32 0
-2 7 0
-3 33 0
-3 8 0
-4 34 0
-4 9 0
-5 35 0
-5 10 0
-6 -184 0
-6 -185 0
-6 -186 0
-7 184 0
-7 -185 0
-7 -186 0
-8 -184 0
-8 185 0
-8 -186 0
-9 184 0
-9 185 0
-9 -186 0
-10 -184 0
-10 -185 0
-10 186 0
-6 1 11 0
-6 1 36 0
-6 11 36 0
-7 2 12 0
-7 2 37 0
-7 12 37 0
-8 3 13 0
-8 3 38 0
-8 13 38 0
-9 4 14 0
-9 4 39 0
-9 14 39 0
-10 5 15 0
-10 5 40 0
-10 15 40 0
-6 -1 -11 -36 0
-7 -2 -12 -37 0
-8 -3 -13 -38 0
-9 -4 -14 -39 0
-10 -5 -15 -40 0
-11 -187 0
-11 -188 0
-11 -189 0
-12 187 0
-12 -188 0
-12 -189 0
-13 -187 0
-13 188 0
-13 -189 0
-14 187 0
-14 188 0
-14 -189 0
-15 -187 0
-15 -188 0
-15 189 0
-11 6 16 0
-11 6 41 0
-11 16 41 0
-12 7 17 0
-12 7 42 0
-12 17 42 0
-13 8 18 0
-13 8 43 0
-13 18 43 0
-14 9 19 0
-14 9 44 0
-14 19 44 0
-15 10 20 0
-15 10 45 0
-15 20 45 0
-11 -6 -16 -41 0
-12 -7 -17 -42 0
-13 -8 -18 -43 0
-14 -9 -19 -44 0
-15 -10 -20 -45 0
-16 -190 0
-16 -191 0
-16 -192 0
-17 190 0
-17 -191 0
-17 -192 0
-18 -190 0
-18 191 0
-18 -192 0
-19 190 0
-19 191 0
-19 -192 0
-20 -190 0
-20 -191 0
-20 192 0
-16 11 21 0
-16 11 46 0
-16 21 46 0
-17 12 22 0
-17 12 47 0
-17 22 47 0
-18 13 23 0
-18 13 48 0
-18 23 48 0
-19 14 24 0
-19 14 49 0
-19 24 49 0
-20 15 25 0
-20 15 50 0
-20 25 50 0
-16 -11 -21 -46 0
-17 -12 -22 -47 0
-18 -13 -23 -48 0
-19 -14 -24 -49 0
-20 -15 -25 -50 0
21 0
-22 0
-23 0
-24 0
-25 0
16 26 51 0
-16 -26 0
-16 -51 0
-26 -51 0
30 0
-26 0
-27 0
-28 0
-29 0
60 25 0
-60 -25 0
-31 -193 0
-31 -194 0
-31 -195 0
-32 193 0
-32 -194 0
-32 -195 0
-33 -193 0
-33 194 0
-33 -195 0
-34 193 0
-34 194 0
-34 -195 0
-35 -193 0
-35 -194 0
-35 195 0
-31 61 36 0
-31 61 1 0
-31 36 1 0
-32 62 37 0
-32 62 2 0
-32 37 2 0
-33 63 38 0
-33 63 3 0
-33 38 3 0
-34 64 39 0
-34 64 4 0
-34 39 4 0
-35 65 40 0
-35 65 5 0
-35 40 5 0
-31 -61 -36 -1 0
-32 -62 -37 -2 0
-33 -63 -38 -3 0
-34 -64 -39 -4 0
-35 -65 -40 -5 0
-36 -196 0
-36 -197 0
-36 -198 0
-37 196 0
-37 -197 0
-37 -198 0
-38 -196 0
-38 197 0
-38 -198 0
-39 196 0
-39 197 0
-39 -198 0
-40 -196 0
-40 -197 0
-40 198 0
-36 66 41 6 0
-36 66 41 31 0
-36 66 6 31 0
-36 41 6 31 0
-37 67 42 7 0
-37 67 42 32 0
-37 67 7 32 0
-37 42 7 32 0
-38 68 43 8 0
-38 68 43 33 0
-38 68 8 33 0
-38 43 8 33 0
-39 69 44 9 0
-39 69 44 34 0
-39 69 9 34 0
-39 44 9 34 0
-40 70 45 10 0
-40 70 45 35 0
-40 70 10 35 0
-40 45 10 35 0
-36 -66 -41 -6 0
-36 -66 -41 -31 0
-36 -66 -6 -31 0
-36 -41 -6 -31 0
-37 -67 -42 -7 0
-37 -67 -42 -32 0
-37 -67 -7 -32 0
-37 -42 -7 -32 0
-38 -68 -43 -8 0
-38 -68 -43 -33 0
-38 -68 -8 -33 0
-38 -43 -8 -33 0
-39 -69 -44 -9 0
-39 -69 -44 -34 0
-39 -69 -9 -34 0
-39 -44 -9 -34 0
-40 -70 -45 -10 0
-40 -70 -45 -35 0
-40 -70 -10 -35 0
-40 -45 -10 -35 0
-41 -199 0
-41 -200 0
-41 -201 0
-42 199 0
-42 -200 0
-42 -201 0
-43 -199 0
-43 200 0
-43 -201 0
-44 199 0
-44 200 0
-44 -201 0
-45 -199 0
-45 -200 0
-45 201 0
-41 71 46 11 0
-41 71 46 36 0
-41 71 11 36 0
-41 46 11 36 0
-42 72 47 12 0
-42 72 47 37 0
-42 72 12 37 0
-42 47 12 37 0
-43 73 48 13 0
-43 73 48 38 0
-43 73 13 38 0
-43 48 13 38 0
-44 74 49 14 0
-44 74 49 39 0
-44 74 14 39 0
-44 49 14 39 0
-45 75 50 15 0
-45 75 50 40 0
-45 75 15 40 0
-45 50 15 40 0
-41 -71 -46 -11 0
-41 -71 -46 -36 0
-41 -71 -11 -36 0
-41 -46 -11 -36 0
-42 -72 -47 -12 0
-42 -72 -47 -37 0
-42 -72 -12 -37 0
-42 -47 -12 -37 0
-43 -73 -48 -13 0
-43 -73 -48 -38 0
-43 -73 -13 -38 0
-43 -48 -13 -38 0
-44 -74 -49 -14 0
-44 -74 -49 -39 0
-44 -74 -14 -39 0
-44 -49 -14 -39 0
-45 -75 -50 -15 0
-45 -75 -50 -40 0
-45 -75 -15 -40 0
-45 -50 -15 -40 0
-46 -202 0
-46 -203 0
-46 -204 0
-47 202 0
-47 -203 0
-47 -204 0
-48 -202 0
-48 203 0
-48 -204 0
-49 202 0
-49 203 0
-49 -204 0
-50 -202 0
-50 -203 0
-50 204 0
-46 76 51 16 0
-46 76 51 41 0
-46 76 16 41 0
-46 51 16 41 0
-47 77 52 17 0
-47 77 52 42 0
-47 77 17 42 0
-47 52 17 42 0
-48 78 53 18 0
-48 78 53 43 0
-48 78 18 43 0
-48 53 18 43 0
-49 79 54 19 0
-49 79 54 44 0
-49 79 19 44 0
-49 54 19 44 0
-50 80 55 20 0
-50 80 55 45 0
-50 80 20 45 0
-50 55 20 45 0
-46 -76 -51 -16 0
-46 -76 -51 -41 0
-46 -76 -16 -41 0
-46 -51 -16 -41 0
-47 -77 -52 -17 0
-47 -77 -52 -42 0
-47 -77 -17 -42 0
-47 -52 -17 -42 0
-48 -78 -53 -18 0
-48 -78 -53 -43 0
-48 -78 -18 -43 0
-48 -53 -18 -43 0
-49 -79 -54 -19 0
-49 -79 -54 -44 0
-49 -79 -19 -44 0
-49 -54 -19 -44 0
-50 -80 -55 -20 0
-50 -80 -55 -45 0
-50 -80 -20 -45 0
-50 -55 -20 -45 0
-51 -205 0
-51 -206 0
-51 -207 0
-52 205 0
-52 -206 0
-52 -207 0
-53 -205 0
-53 206 0
-53 -207 0
-54 205 0
-54 206 0
-54 -207 0
-55 -205 0
-55 -206 0
-55 207 0
-51 81 56 21 0
-51 81 56 46 0
-51 81 21 46 0
-51 56 21 46 0
-52 82 57 22 0
-52 82 57 47 0
-52 82 22 47 0
-52 57 22 47 0
-53 83 58 23 0
-53 83 58 48 0
-53 83 23 48 0
-53 58 23 48 0
-54 84 59 24 0
-54 84 59 49 0
-54 84 24 49 0
-54 59 24 49 0
-55 85 60 25 0
-55 85 60 50 0
-55 85 25 50 0
-55 60 25 50 0
-51 -81 -56 -21 0
-51 -81 -56 -46 0
-51 -81 -21 -46 0
-51 -56 -21 -46 0
-52 -82 -57 -22 0
-52 -82 -57 -47 0
-52 -82 -22 -47 0
-52 -57 -22 -47 0
-53 -83 -58 -23 0
-53 -83 -58 -48 0
-53 -83 -23 -48 0
-53 -58 -23 -48 0
-54 -84 -59 -24 0
-54 -84 -59 -49 0
-54 -84 -24 -49 0
-54 -59 -24 -49 0
-55 -85 -60 -25 0
-55 -85 -60 -50 0
-55 -85 -25 -50 0
-55 -60 -25 -50 0
-56 -208 0
-56 -209 0
-56 -210 0
-57 208 0
-57 -209 0
-57 -210 0
-58 -208 0
-58 209 0
-58 -210 0
-59 208 0
-59 209 0
-59 -210 0
-60 -208 0
-60 -209 0
-60 210 0
-56 86 51 0
-56 86 26 0
-56 51 26 0
-57 87 52 0
-57 87 27 0
-57 52 27 0
-58 88 53 0
-58 88 28 0
-58 53 28 0
-59 89 54 0
-59 89 29 0
-59 54 29 0
-60 90 55 0
-60 90 30 0
-60 55 30 0
-56 -86 -51 -26 0
-57 -87 -52 -27 0
-58 -88 -53 -28 0
-59 -89 -54 -29 0
-60 -90 -55 -30 0
-61 -211 0
-61 -212 0
-61 -213 0
-62 211 0
-62 -212 0
-62 -213 0
-63 -211 0
-63 212 0
-63 -213 0
-64 211 0
-64 212 0
-64 -213 0
-65 -211 0
-65 -212 0
-65 213 0
-61 91 66 0
-61 91 31 0
-61 66 31 0
-62 92 67 0
-62 92 32 0
-62 67 32 0
-63 93 68 0
-63 93 33 0
-63 68 33 0
-64 94 69 0
-64 94 34 0
-64 69 34 0
-65 95 70 0
-65 95 35 0
-65 70 35 0
-61 -91 -66 -31 0
-62 -92 -67 -32 0
-63 -93 -68 -33 0
-64 -94 -69 -34 0
-65 -95 -70 -35 0
-66 -214 0
-66 -215 0
-66 -216 0
-67 214 0
-67 -215 0
-67 -216 0
-68 -214 0
-68 215 0
-68 -216 0
-69 214 0
-69 215 0
-69 -216 0
-70 -214 0
-70 -215 0
-70 216 0
-66 96 71 36 0
-66 96 71 61 0
-66 96 36 61 0
-66 71 36 61 0
-67 97 72 37 0
-67 97 72 62 0
-67 97 37 62 0
-67 72 37 62 0
-68 98 73 38 0
-68 98 73 63 0
-68 98 38 63 0
-68 73 38 63 0
-69 99 74 39 0
-69 99 74 64 0
-69 99 39 64 0
-69 74 39 64 0
-70 100 75 40 0
-70 100 75 65 0
-70 100 40 65 0
-70 75 40 65 0
-66 -96 -71 -36 0
-66 -96 -71 -61 0
-66 -96 -36 -61 0
-66 -71 -36 -61 0
-67 -97 -72 -37 0
-67 -97 -72 -62 0
-67 -97 -37 -62 0
-67 -72 -37 -62 0
-68 -98 -73 -38 0
-68 -98 -73 -63 0
-68 -98 -38 -63 0
-68 -73 -38 -63 0
-69 -99 -74 -39 0
-69 -99 -74 -64 0
-69 -99 -39 -64 0
-69 -74 -39 -64 0
-70 -100 -75 -40 0
-70 -100 -75 -65 0
-70 -100 -40 -65 0
-70 -75 -40 -65 0
-71 -217 0
-71 -218 0
-71 -219 0
-72 217 0
-72 -218 0
-72 -219 0
-73 -217 0
-73 218 0
-73 -219 0
-74 217 0
-74 218 0
-74 -219 0
-75 -217 0
-75 -218 0
-75 219 0
-71 101 76 41 0
-71 101 76 66 0
-71 101 41 66 0
-71 76 41 66 0
-72 102 77 42 0
-72 102 77 67 0
-72 102 42 67 0
-72 77 42 67 0
-73 103 78 43 0
-73 103 78 68 0
-73 103 43 68 0
-73 78 43 68 0
-74 104 79 44 0
-74 104 79 69 0
-74 104 44 69 0
-74 79 44 69 0
-75 105 80 45 0
-75 105 80 70 0
-75 105 45 70 0
-75 80 45 70 0
-71 -101 -76 -41 0
-71 -101 -76 -66 0
-71 -101 -41 -66 0
-71 -76 -41 -66 0
-72 -102 -77 -42 0
-72 -102 -77 -67 0
-72 -102 -42 -67 0
-72 -77 -42 -67 0
-73 -103 -78 -43 0
-73 -103 -78 -68 0
-73 -103 -43 -68 0
-73 -78 -43 -68 0
-74 -104 -79 -44 0
-74 -104 -79 -69 0
-74 -104 -44 -69 0
-74 -79 -44 -69 0
-75 -105 -80 -45 0
-75 -105 -80 -70 0
-75 -105 -45 -70 0
-75 -80 -45 -70 0
-76 -220 0
-76 -221 0
-76 -222 0
-77 220 0
-77 -221 0
-77 -222 0
-78 -220 0
-78 221 0
-78 -222 0
-79 220 0
-79 221 0
-79 -222 0
-80 -220 0
-80 -221 0
-80 222 0
-76 106 81 46 0
-76 106 81 71 0
-76 106 46 71 0
-76 81 46 71 0
-77 107 82 47 0
-77 107 82 72 0
-77 107 47 72 0
-77 82 47 72 0
-78 108 83 48 0
-78 108 83 73 0
-78 108 48 73 0
-78 83 48 73 0
-79 109 84 49 0
-79 109 84 74 0
-79 109 49 74 0
-79 84 49 74 0
-80 110 85 50 0
-80 110 85 75 0
-80 110 50 75 0
-80 85 50 75 0
-76 -106 -81 -46 0
-76 -106 -81 -71 0
-76 -106 -46 -71 0
-76 -81 -46 -71 0
-77 -107 -82 -47 0
-77 -107 -82 -72 0
-77 -107 -47 -72 0
-77 -82 -47 -72 0
-78 -108 -83 -48 0
-78 -108 -83 -73 0
-78 -108 -48 -73 0
-78 -83 -48 -73 0
-79 -109 -84 -49 0
-79 -109 -84 -74 0
-79 -109 -49 -74 0
-79 -84 -49 -74 0
-80 -110 -85 -50 0
-80 -110 -85 -75 0
-80 -110 -50 -75 0
-80 -85 -50 -75 0
-81 -223 0
-81 -224 0
-81 -225 0
-82 223 0
-82 -224 0
-82 -225 0
-83 -223 0
-83 224 0
-83 -225 0
-84 223 0
-84 224 0
-84 -225 0
-85 -223 0
-85 -224 0
-85 225 0
-81 111 86 51 0
-81 111 86 76 0
-81 111 51 76 0
-81 86 51 76 0
-82 112 87 52 0
-82 112 87 77 0
-82 112 52 77 0
-82 87 52 77 0
-83 113 88 53 0
-83 113 88 78 0
-83 113 53 78 0
-83 88 53 78 0
-84 114 89 54 0
-84 114 89 79 0
-84 114 54 79 0
-84 89 54 79 0
-85 115 90 55 0
-85 115 90 80 0
-85 115 55 80 0
-85 90 55 80 0
-81 -111 -86 -51 0
-81 -111 -86 -76 0
-81 -111 -51 -76 0
-81 -86 -51 -76 0
-82 -112 -87 -52 0
-82 -112 -87 -77 0
-82 -112 -52 -77 0
-82 -87 -52 -77 0
-83 -113 -88 -53 0
-83 -113 -88 -78 0
-83 -113 -53 -78 0
-83 -88 -53 -78 0
-84 -114 -89 -54 0
-84 -114 -89 -79 0
-84 -114 -54 -79 0
-84 -89 -54 -79 0
-85 -115 -90 -55 0
-85 -115 -90 -80 0
-85 -115 -55 -80 0
-85 -90 -55 -80 0
-86 -226 0
-86 -227 0
-86 -228 0
-87 226 0
-87 -227 0
-87 -228 0
-88 -226 0
-88 227 0
-88 -228 0
-89 226 0
-89 227 0
-89 -228 0
-90 -226 0
-90 -227 0
-90 228 0
-86 116 81 0
-86 116 56 0
-86 81 56 0
-87 117 82 0
-87 117 57 0
-87 82 57 0
-88 118 83 0
-88 118 58 0
-88 83 58 0
-89 119 84 0
-89 119 59 0
-89 84 59 0
-90 120 85 0
-90 120 60 0
-90 85 60 0
-86 -116 -81 -56 0
-87 -117 -82 -57 0
-88 -118 -83 -58 0
-89 -119 -84 -59 0
-90 -120 -85 -60 0
-91 -229 0
-91 -230 0
-91 -231 0
-92 229 0
-92 -230 0
-92 -231 0
-93 -229 0
-93 230 0
-93 -231 0
-94 229 0
-94 230 0
-94 -231 0
-95 -229 0
-95 -230 0
-95 231 0
-91 121 96 0
-91 121 61 0
-91 96 61 0
-92 122 97 0
-92 122 62 0
-92 97 62 0
-93 123 98 0
-93 123 63 0
-93 98 63 0
-94 124 99 0
-94 124 64 0
-94 99 64 0
-95 125 100 0
-95 125 65 0
-95 100 65 0
-91 -121 -96 -61 0
-92 -122 -97 -62 0
-93 -123 -98 -63 0
-94 -124 -99 -64 0
-95 -125 -100 -65 0
-96 -232 0
-96 -233 0
-96 -234 0
-97 232 0
-97 -233 0
-97 -234 0
-98 -232 0
-98 233 0
-98 -234 0
-99 232 0
-99 233 0
-99 -234 0
-100 -232 0
-100 -233 0
-100 234 0
-96 126 101 66 0
-96 126 101 91 0
-96 126 66 91 0
-96 101 66 91 0
-97 127 102 67 0
-97 127 102 92 0
-97 127 67 92 0
-97 102 67 92 0
-98 128 103 68 0
-98 128 103 93 0
-98 128 68 93 0
-98 103 68 93 0
-99 129 104 69 0
-99 129 104 94 0
-99 129 69 94 0
-99 104 69 94 0
-100 130 105 70 0
-100 130 105 95 0
-100 130 70 95 0
-100 105 70 95 0
-96 -126 -101 -66 0
-96 -126 -101 -91 0
-96 -126 -66 -91 0
-96 -101 -66 -91 0
-97 -127 -102 -67 0
-97 -127 -102 -92 0
-97 -127 -67 -92 0
-97 -102 -67 -92 0
-98 -128 -103 -68 0
-98 -128 -103 -93 0
-98 -128 -68 -93 0
-98 -103 -68 -93 0
-99 -129 -104 -69 0
-99 -129 -104 -94 0
-99 -129 -69 -94 0
-99 -104 -69 -94 0
-100 -130 -105 -70 0
-100 -130 -105 -95 0
-100 -130 -70 -95 0
-100 -105 -70 -95 0
-101 -235 0
-101 -236 0
-101 -237 0
-102 235 0
-102 -236 0
-102 -237 0
-103 -235 0
-103 236 0
-103 -237 0
-104 235 0
-104 236 0
-104 -237 0
-105 -235 0
-105 -236 0
-105 237 0
-101 131 106 71 0
-101 131 106 96 0
-101 131 71 96 0
-101 106 71 96 0
-102 132 107 72 0
-102 132 107 97 0
-102 132 72 97 0
-102 107 72 97 0
-103 133 108 73 0
-103 133 108 98 0
-103 133 73 98 0
-103 108 73 98 0
-104 134 109 74 0
-104 134 109 99 0
-104 134 74 99 0
-104 109 74 99 0
-105 135 110 75 0
-105 135 110 100 0
-105 135 75 100 0
-105 110 75 100 0
-101 -131 -106 -71 0
-101 -131 -106 -96 0
-101 -131 -71 -96 0
-101 -106 -71 -96 0
-102 -132 -107 -72 0
-102 -132 -107 -97 0
-102 -132 -72 -97 0
-102 -107 -72 -97 0
-103 -133 -108 -73 0
-103 -133 -108 -98 0
-103 -133 -73 -98 0
-103 -108 -73 -98 0
-104 -134 -109 -74 0
-104 -134 -109 -99 0
-104 -134 -74 -99 0
-104 -109 -74 -99 0
-105 -135 -110 -75 0
-105 -135 -110 -100 0
-105 -135 -75 -100 0
-105 -110 -75 -100 0
-106 -238 0
-106 -239 0
-106 -240 0
-107 238 0
-107 -239 0
-107 -240 0
-108 -238 0
-108 239 0
-108 -240 0
-109 238 0
-109 239 0
-109 -240 0
-110 -238 0
-110 -239 0
-110 240 0
-106 136 111 76 0
-106 136 111 101 0
-106 136 76 101 0
-106 111 76 101 0
-107 137 112 77 0
-107 137 112 102 0
-107 137 77 102 0
-107 112 77 102 0
-108 138 113 78 0
-108 138 113 103 0
-108 138 78 103 0
-108 113 78 103 0
-109 139 114 79 0
-109 139 114 104 0
-109 139 79 104 0
-109 114 79 104 0
-110 140 115 80 0
-110 140 115 105 0
-110 140 80 105 0
-110 115 80 105 0
-106 -136 -111 -76 0
-106 -136 -111 -101 0
-106 -136 -76 -101 0
-106 -111 -76 -101 0
-107 -137 -112 -77 0
-107 -137 -112 -102 0
-107 -137 -77 -102 0
-107 -112 -77 -102 0
-108 -138 -113 -78 0
-108 -138 -113 -103 0
-108 -138 -78 -103 0
-108 -113 -78 -103 0
-109 -139 -114 -79 0
-109 -139 -114 -104 0
-109 -139 -79 -104 0
-109 -114 -79 -104 0
-110 -140 -115 -80 0
-110 -140 -115 -105 0
-110 -140 -80 -105 0
-110 -115 -80 -105 0
112 0
-111 0
-113 0
-114 0
-115 0
142 117 82 107 0
-142 -117 0
-142 -82 0
-142 -107 0
-117 -82 0
-117 -107 0
-82 -107 0
-116 -241 0
-116 -242 0
-116 -243 0
-117 241 0
-117 -242 0
-117 -243 0
-118 -241 0
-118 242 0
-118 -243 0
-119 241 0
-119 242 0
-119 -243 0
-120 -241 0
-120 -242 0
-120 243 0
-116 146 111 0
-116 146 86 0
-116 111 86 0
-117 147 112 0
-117 147 87 0
-117 112 87 0
-118 148 113 0
-118 148 88 0
-118 113 88 0
-119 149 114 0
-119 149 89 0
-119 114 89 0
-120 150 115 0
-120 150 90 0
-120 115 90 0
-116 -146 -111 -86 0
-117 -147 -112 -87 0
-118 -148 -113 -88 0
-119 -149 -114 -89 0
-120 -150 -115 -90 0
-121 -244 0
-121 -245 0
-121 -246 0
-122 244 0
-122 -245 0
-122 -246 0
-123 -244 0
-123 245 0
-123 -246 0
-124 244 0
-124 245 0
-124 -246 0
-125 -244 0
-125 -245 0
-125 246 0
-121 151 126 0
-121 151 91 0
-121 126 91 0
-122 152 127 0
-122 152 92 0
-122 127 92 0
-123 153 128 0
-123 153 93 0
-123 128 93 0
-124 154 129 0
-124 154 94 0
-124 129 94 0
-125 155 130 0
-125 155 95 0
-125 130 95 0
-121 -151 -126 -91 0
-122 -152 -127 -92 0
-123 -153 -128 -93 0
-124 -154 -129 -94 0
-125 -155 -130 -95 0
130 0
-126 0
-127 0
-128 0
-129 0
160 135 100 125 0
-160 -135 0
-160 -100 0
-160 -125 0
-135 -100 0
-135 -125 0
-100 -125 0
134 0
-131 0
-132 0
-133 0
-135 0
164 139 104 129 0
-164 -139 0
-164 -104 0
-164 -129 0
-139 -104 0
-139 -129 0
-104 -129 0
-136 -247 0
-136 -248 0
-136 -249 0
-137 247 0
-137 -248 0
-137 -249 0
-138 -247 0
-138 248 0
-138 -249 0
-139 247 0
-139 248 0
-139 -249 0
-140 -247 0
-140 -248 0
-140 249 0
-136 166 141 106 0
-136 166 141 131 0
-136 166 106 131 0
-136 141 106 131 0
-137 167 142 107 0
-137 167 142 132 0
-137 167 107 132 0
-137 142 107 132 0
-138 168 143 108 0
-138 168 143 133 0
-138 168 108 133 0
-138 143 108 133 0
-139 169 144 109 0
-139 169 144 134 0
-139 169 109 134 0
-139 144 109 134 0
-140 170 145 110 0
-140 170 145 135 0
-140 170 110 135 0
-140 145 110 135 0
-136 -166 -141 -106 0
-136 -166 -141 -131 0
-136 -166 -106 -131 0
-136 -141 -106 -131 0
-137 -167 -142 -107 0
-137 -167 -142 -132 0
-137 -167 -107 -132 0
-137 -142 -107 -132 0
-138 -168 -143 -108 0
-138 -168 -143 -133 0
-138 -168 -108 -133 0
-138 -143 -108 -133 0
-139 -169 -144 -109 0
-139 -169 -144 -134 0
-139 -169 -109 -134 0
-139 -144 -109 -134 0
-140 -170 -145 -110 0
-140 -170 -145 -135 0
-140 -170 -110 -135 0
-140 -145 -110 -135 0
143 0
-141 0
-142 0
-144 0
-145 0
173 148 113 138 0
-173 -148 0
-173 -113 0
-173 -138 0
-148 -113 0
-148 -138 0
-113 -138 0
149 0
-146 0
-147 0
-148 0
-150 0
179 144 119 0
-179 -144 0
-179 -119 0
-144 -119 0
-151 -250 0
-151 -251 0
-151 -252 0
-152 250 0
-152 -251 0
-152 -252 0
-153 -250 0
-153 251 0
-153 -252 0
-154 250 0
-154 251 0
-154 -252 0
-155 -250 0
-155 -251 0
-155 252 0
-151 121 0
-151 156 0
-152 122 0
-152 157 0
-153 123 0
-153 158 0
-154 124 0
-154 159 0
-155 125 0
-155 160 0
156 0
-157 0
-158 0
-159 0
-160 0
126 161 151 0
-126 -161 0
-126 -151 0
-161 -151 0
162 0
-161 0
-163 0
-164 0
-165 0
132 167 157 0
-132 -167 0
-132 -157 0
-167 -157 0
-166 -253 0
-166 -254 0
-166 -255 0
-167 253 0
-167 -254 0
-167 -255 0
-168 -253 0
-168 254 0
-168 -255 0
-169 253 0
-169 254 0
-169 -255 0
-170 -253 0
-170 -254 0
-170 255 0
-166 136 171 0
-166 136 161 0
-166 171 161 0
-167 137 172 0
-167 137 162 0
-167 172 162 0
-168 138 173 0
-168 138 163 0
-168 173 163 0
-169 139 174 0
-169 139 164 0
-169 174 164 0
-170 140 175 0
-170 140 165 0
-170 175 165 0
-166 -136 -171 -161 0
-167 -137 -172 -162 0
-168 -138 -173 -163 0
-169 -139 -174 -164 0
-170 -140 -175 -165 0
-171 -256 0
-171 -257 0
-171 -258 0
-172 256 0
-172 -257 0
-172 -258 0
-173 -256 0
-173 257 0
-173 -258 0
-174 256 0
-174 257 0
-174 -258 0
-175 -256 0
-175 -257 0
-175 258 0
-171 141 176 0
-171 141 166 0
-171 176 166 0
-172 142 177 0
-172 142 167 0
-172 177 167 0
-173 143 178 0
-173 143 168 0
-173 178 168 0
-174 144 179 0
-174 144 169 0
-174 179 169 0
-175 145 180 0
-175 145 170 0
-175 180 170 0
-171 -141 -176 -166 0
-172 -142 -177 -167 0
-173 -143 -178 -168 0
-174 -144 -179 -169 0
-175 -145 -180 -170 0
178 0
-176 0
-177 0
-179 0
-180 0
148 173 0
-148 -173 0
31 36 41 46 51 56 0
61 66 71 76 81 86 0
91 96 101 106 116 0
121 136 0
11 41 71 101 0
16 46 76 106 136 166 0
122 137 0
17 47 77 107 137 167 0
19 49 79 109 139 169 0
54 84 174 0
35 40 45 50 55 60 0
65 70 75 80 85 90 0
95 100 105 110 120 0
15 45 75 105 0
20 50 80 110 140 170 0
55 85 175 0